835
247
69627
36993
791
7158
4761
7293
7822
36210
3897
36171
51905
545
3539
1683
7103
7907
14826
1000
2049
100
8735
861
3866
1054
0
393
3943
4631
3792
1606
208
506
1077
1429
82628
35769
778
8280
22789
12565
147
3784
1682
744
3691
3997
2122
659
22586
36547
782
67905
3989
8021
2042
151
962
103
7396
62
32
13991
2122
4483
3921
296
19
1764
14220
14512
14233
4112
20
23652
4894
4711
8713
14164
272
36532
6485
409
1822
1979
13845
7485
4381
14653
36353
1032
3806
59
3515
1225
323
4621
23900
3190
